(set-info :source |printed by MathSAT|)
(declare-fun main@%x.0.i_0_1 () Int)
(declare-fun .y.10 () Int)
(declare-fun main@%a1.i_0_3 () Int)
(declare-fun .y.11 () Int)
(declare-fun main@%_1_0_3 () (Array Int Int))
(declare-fun .y.12 () (Array Int Int))
(declare-fun main@%a2.i_0_3 () Int)
(declare-fun .y.13 () Int)
(declare-fun main@%_0_0_3 () (Array Int Int))
(declare-fun .y.14 () (Array Int Int))
(declare-fun .loc.8 () Bool)
(declare-fun .loc.15 () Bool)
(declare-fun .loc.9 () Bool)
(declare-fun .loc.16 () Bool)
(declare-fun main@%_11_0_0 () Int)
(declare-fun main@%_9_0_0 () Int)
(define-fun .def_8 () Int (! main@%x.0.i_0_1 :next |.y.10|))
(define-fun .def_10 () Int (! main@%a1.i_0_3 :next |.y.11|))
(define-fun .def_12 () (Array Int Int) (! main@%_1_0_3 :next |.y.12|))
(define-fun .def_14 () Int (! main@%a2.i_0_3 :next |.y.13|))
(define-fun .def_16 () (Array Int Int) (! main@%_0_0_3 :next |.y.14|))
(define-fun .def_18 () Bool (! .loc.8 :next |.loc.15|))
(define-fun .def_20 () Bool (! .loc.9 :next |.loc.16|))
(define-fun .def_57 () Int (! main@%_11_0_0 :next |.xtv.1|))
(define-fun .def_59 () Int (! main@%_9_0_0 :next |.xtv.2|))
(define-fun .def_44 () Bool (not .def_18))
(define-fun .def_27 () Bool (not .def_20))
(define-fun .def_116 () Bool (! (and .def_27 .def_44) :init true))
(define-fun .def_60 () Int (select .def_12 .def_59))
(define-fun .def_58 () Int (select .def_16 .def_57))
(define-fun .def_61 () Bool (= .def_58 .def_60))
(define-fun .def_106 () Bool (not .def_61))
(define-fun .def_81 () Bool (<= .def_14 0))
(define-fun .def_86 () Bool (not .def_81))
(define-fun .def_82 () Bool (<= .def_57 0))
(define-fun .def_83 () Bool (not .def_82))
(define-fun .def_84 () Bool (or .def_81 .def_83))
(define-fun .def_76 () Int (* (- 1) .def_57))
(define-fun .def_77 () Int (+ .def_14 .def_76))
(define-fun .def_78 () Int (+ .def_8 .def_77))
(define-fun .def_79 () Bool (= .def_78 0))
(define-fun .def_69 () Bool (<= .def_10 0))
(define-fun .def_74 () Bool (not .def_69))
(define-fun .def_70 () Bool (<= .def_59 0))
(define-fun .def_71 () Bool (not .def_70))
(define-fun .def_72 () Bool (or .def_69 .def_71))
(define-fun .def_62 () Int (* (- 1) .def_59))
(define-fun .def_65 () Int (+ .def_10 .def_62))
(define-fun .def_66 () Int (+ .def_8 .def_65))
(define-fun .def_67 () Bool (= .def_66 0))
(define-fun .def_23 () Bool (<= 100000 .def_8))
(define-fun .def_24 () Bool (not .def_23))
(define-fun .def_68 () Bool (and .def_24 .def_67))
(define-fun .def_73 () Bool (and .def_68 .def_72))
(define-fun .def_75 () Bool (and .def_73 .def_74))
(define-fun .def_80 () Bool (and .def_75 .def_79))
(define-fun .def_85 () Bool (and .def_80 .def_84))
(define-fun .def_87 () Bool (and .def_85 .def_86))
(define-fun .def_107 () Bool (and .def_87 .def_106))
(define-fun .def_108 () Bool (and .def_20 .def_107))
(define-fun .def_109 () Bool (and .def_44 .def_108))
(define-fun .def_110 () Bool (and .loc.15 .def_109))
(define-fun .def_98 () Bool (and .def_18 .def_23))
(define-fun .def_91 () Bool (not .loc.15))
(define-fun .def_99 () Bool (and .def_91 .def_98))
(define-fun .def_100 () Bool (and .def_27 .def_99))
(define-fun .def_48 () Bool (= .y.10 0))
(define-fun .def_101 () Bool (and .def_48 .def_100))
(define-fun .def_29 () Bool (= .def_10 .y.11))
(define-fun .def_102 () Bool (and .def_29 .def_101))
(define-fun .def_31 () Bool (= .def_12 .y.12))
(define-fun .def_103 () Bool (and .def_31 .def_102))
(define-fun .def_33 () Bool (= .def_14 .y.13))
(define-fun .def_104 () Bool (and .def_33 .def_103))
(define-fun .def_35 () Bool (= .def_16 .y.14))
(define-fun .def_105 () Bool (and .def_35 .def_104))
(define-fun .def_111 () Bool (or .def_105 .def_110))
(define-fun .def_88 () Bool (and .def_61 .def_87))
(define-fun .def_89 () Bool (and .def_20 .def_88))
(define-fun .def_90 () Bool (and .def_44 .def_89))
(define-fun .def_92 () Bool (and .def_90 .def_91))
(define-fun .def_93 () Bool (and .def_29 .def_92))
(define-fun .def_94 () Bool (and .def_31 .def_93))
(define-fun .def_95 () Bool (and .def_33 .def_94))
(define-fun .def_96 () Bool (and .def_35 .def_95))
(define-fun .def_38 () Int (* (- 1) .y.10))
(define-fun .def_39 () Int (+ .def_8 .def_38))
(define-fun .def_40 () Bool (= .def_39 (- 1)))
(define-fun .def_97 () Bool (and .def_40 .def_96))
(define-fun .def_112 () Bool (or .def_97 .def_111))
(define-fun .def_113 () Bool (and .loc.16 .def_112))
(define-fun .def_54 () Bool (<= .y.11 0))
(define-fun .def_55 () Bool (not .def_54))
(define-fun .def_51 () Bool (<= .y.13 0))
(define-fun .def_52 () Bool (not .def_51))
(define-fun .def_45 () Bool (and .loc.15 .def_44))
(define-fun .def_46 () Bool (and .def_27 .def_45))
(define-fun .def_49 () Bool (and .def_46 .def_48))
(define-fun .def_42 () Bool (not .loc.16))
(define-fun .def_50 () Bool (and .def_42 .def_49))
(define-fun .def_53 () Bool (and .def_50 .def_52))
(define-fun .def_56 () Bool (and .def_53 .def_55))
(define-fun .def_114 () Bool (or .def_56 .def_113))
(define-fun .def_25 () Bool (and .def_18 .def_24))
(define-fun .def_26 () Bool (and .loc.15 .def_25))
(define-fun .def_28 () Bool (and .def_26 .def_27))
(define-fun .def_30 () Bool (and .def_28 .def_29))
(define-fun .def_32 () Bool (and .def_30 .def_31))
(define-fun .def_34 () Bool (and .def_32 .def_33))
(define-fun .def_36 () Bool (and .def_34 .def_35))
(define-fun .def_41 () Bool (and .def_36 .def_40))
(define-fun .def_43 () Bool (and .def_41 .def_42))
(define-fun .def_115 () Bool (! (or .def_43 .def_114) :trans true))
(define-fun .def_117 () Bool (and .def_18 .def_20))
(define-fun .def_118 () Bool (! (not .def_117) :invar-property 0))
(assert true)
